language Essence 1.3

letting class be function(1 --> 2, 2 --> 5, 3 --> 1, 4 --> 5, 5 --> 1, 6 --> 1, 7 --> 3, 8 --> 4)
letting deck_length be 27
letting deck_width be 50
letting length be function(1 --> 14, 2 --> 26, 3 --> 1, 4 --> 26, 5 --> 11, 6 --> 8, 7 --> 18, 8 --> 22)
letting n_classes be 5
letting n_containers be 8
letting separation be function({1, 3} --> 16)
letting width be function(1 --> 9, 2 --> 6, 3 --> 24, 4 --> 13, 5 --> 16, 6 --> 3, 7 --> 11, 8 --> 5)
